%chk=S:\MOlecules\ZNO(pure)\fre.chk
# freq b3lyp/6-31g geom=connectivity

fre

0 1
 Zn                -0.11690405    1.86624324   -0.00000000
 O                  1.60367643    2.38143107   -0.00000000
 Zn                 2.06925486    4.07677214   -0.00000000
 O                 -1.06405436    0.37976839   -0.00000000
 Zn                -1.45236689   -3.56202405    0.00000000
 O                  0.17620283   -2.82760256    0.00000000
 Zn                 0.00000000   -1.06668569    0.00000000
 O                 -2.59076461   -4.86224304    0.00000000

 1 2 1.0 4 1.0
 2 3 1.0
 3 8 1.0
 4 7 1.0
 5 6 1.0 8 1.0
 6 7 1.0
 7
 8

