%chk=S:\ZNO.chk
# pbepbe/3-21g/auto

Title Card Required

0 1
 Zn                 0.00000000    1.87598885    2.60285450
 O                  1.62465400    0.93799442    1.97301577
 Zn                 1.62465400    0.93799442    0.00000000
 O                  0.00000000    1.87598885    4.57587027
 Zn                 3.24930800    1.87598885    2.60285450
 O                  4.87396200    0.93799442    1.97301577
 Zn                 4.87396200    0.93799442    0.00000000
 O                  3.24930800    1.87598885    4.57587027
 Zn                -1.62465400    4.68997212    2.60285450
 O                  0.00000000    3.75197769    1.97301577
 Zn                 0.00000000    3.75197769    0.00000000
 O                 -1.62465400    4.68997212    4.57587027
 Zn                 1.62465400    4.68997212    2.60285450
 O                  3.24930800    3.75197769    1.97301577
 Zn                 3.24930800    3.75197769    0.00000000
 O                  1.62465400    4.68997212    4.57587027
 Zn                 0.00000000    1.87598885    7.80856350
 O                  1.62465400    0.93799442    7.17872477
 Zn                 1.62465400    0.93799442    5.20570900
 O                  0.00000000    1.87598885    9.78157927
 Zn                 3.24930800    1.87598885    7.80856350
 O                  4.87396200    0.93799442    7.17872477
 Zn                 4.87396200    0.93799442    5.20570900
 O                  3.24930800    1.87598885    9.78157927
 Zn                -1.62465400    4.68997212    7.80856350
 O                  0.00000000    3.75197769    7.17872477
 Zn                 0.00000000    3.75197769    5.20570900
 O                 -1.62465400    4.68997212    9.78157927
 Zn                 1.62465400    4.68997212    7.80856350
 O                  3.24930800    3.75197769    7.17872477
 Zn                 3.24930800    3.75197769    5.20570900
 O                  1.62465400    4.68997212    9.78157927
 Tv                 6.49861600    0.00000000    0.00000000
 Tv                -3.24930800    5.62796654    0.00000000
 Tv                 0.00000000    0.00000000   10.41141800

