%chk=S:\MOlecules\ZNO(pure)\ZNO_PURE.chk
# b3lyp/6-31g geom=connectivity

ZNO_ene

0 1
 Zn                 0.00000000    1.87598885    2.60285450
 O                  1.62465400    0.93799442    1.97301577
 Zn                 1.62465400    0.93799442    0.00000000
 O                  0.00000000    1.87598885    4.57587027
 Zn                 0.00000000    1.87598885    7.80856350
 O                  1.62465400    0.93799442    7.17872477
 Zn                 1.62465400    0.93799442    5.20570900
 O                  0.00000000    1.87598885    9.78157927

 1 2 1.0 4 1.0
 2 3 1.0
 3 8 1.0
 4 7 1.0
 5 6 1.0 8 1.0
 6 7 1.0
 7
 8

