%chk=S:\MOlecules\ZnO.chk
# opt b3lyp/3-21g

ZnO

0 1
 Zn                 0.00000000    1.87598885    2.60285450
 O                  1.62465400    0.93799442    1.97301577
 Zn                 1.62465400    0.93799442    0.00000000
 O                  0.00000000    1.87598885    4.57587027
 Fe                 0.00000000    1.87598885    7.80856350
 O                  1.62465400    0.93799442    7.17872477
 Zn                 1.62465400    0.93799442    5.20570900
 O                  0.00000000    1.87598885    9.78157927

